NumberOfAtoms         3      
NumberOfSpecies       1       
LatticeConstant       2.40000 Ang 

%block ChemicalSpeciesLabel
  1  29  Cu 
%endblock ChemicalSpeciesLabel

%block LatticeVectors          
 5.00000  0.00000  0.00000
 0.00000  5.00000  0.00000 
 0.00000  0.00000  4.00000
%endblock LatticeVectors

AtomicCoordinatesFormat   ScaledCartesian  

%block AtomicCoordinatesAndAtomicSpecies
 2.50000  2.50000  0.50000  1 
 2.50000  2.50000  1.50000  1
 2.50000  2.50000  2.50000  1
%endblock AtomicCoordinatesAndAtomicSpecies
